\ LP format - for model browsing. Use MPS format to capture full model detail.
Minimize
  8600 y2 + 7500 x2 + 7500 x2 + 7500 x2 + 7500 x2 + 7500 x2 + 7500 x2
   + 7500 x2 + 7500 x2
Subject To
 c0: 14 y2 + 14 x2 + 14 x2 + 14 x2 + 14 x2 + 14 x2 + 14 x2 + 14 x2 + 14 x2
   >= 7
 c1: 1.55 x2 <= 12
 c2: 1.55 x2 <= 12
 c3: 1.55 x2 <= 7.35
 c4: 1.55 x2 <= 12
 c5: 1.55 x2 <= 12
 c6: 1.55 x2 <= 12
 c7: 1.55 x2 <= 12
 c8: 1.55 x2 <= 12
Bounds
Generals
 y2 x2 x2 x2 x2 x2 x2 x2 x2
End
